Optimal - objective value 0.00000000
      0 C0000000               0                      -0
      1 C0000001               0                      -0
      2 C0000002               1                      -0
      3 C0000003               0                      -0
      4 C0000004               0                      -0
      5 C0000005               0                      -0
      6 C0000006               0                      -0
      7 C0000007               0                      -0
      8 C0000008               0                      -0
      9 C0000009               0                      -0
     10 C0000010               0                      -0
     11 C0000011               0                      -0
     12 C0000012               1                      -0
     13 C0000013               0                      -0
     14 C0000014               0                      -0
     15 C0000015               0                      -0
     16 C0000016               0                      -0
     17 C0000017               0                      -0
     18 C0000018               2                      -0
     19 C0000019               0                      -0
     20 C0000020               0                      -0
     21 C0000021               1                      -0
     22 C0000022               2                      -0
     23 C0000023               1                      -0
     24 C0000024              22                      -0
      0 X0000000               0                       1
      1 X0000001               0                       0
      2 X0000002               0                       0
      3 X0000003               0                       0
      4 X0000004               0                       0
      5 X0000005               0                       0
      6 X0000006               0                       0
      7 X0000007               0                       0
      8 X0000008               0                       0
      9 X0000009               0                       0
     10 X0000010               0                       0
     11 X0000011               0                       0
     12 X0000012               0                       0
     13 X0000013               0                       0
     14 X0000014               0                       0
     15 X0000015               0                       0
     16 X0000016               0                       0
     17 X0000017               0                       0
     18 X0000018               0                       0
     19 X0000019               0                       0
     20 X0000020               0                       0
     21 X0000021               0                       0
     22 X0000022               0                       0
     23 X0000023               0                       0
     24 X0000024               0                       0
     25 X0000025               0                       0
     26 X0000026               0                       0
     27 X0000027               0                       0
     28 X0000028               0                       0
     29 X0000029               0                       0
     30 X0000030               0                       0
     31 X0000031               0                       0
     32 X0000032               0                       0
     33 X0000033               0                       0
     34 X0000034               0                       0
     35 X0000035               0                       0
     36 X0000036               0                       0
     37 X0000037               0                       0
     38 X0000038               0                       0
     39 X0000039               0                       0
     40 X0000040               0                       0
     41 X0000041               0                       0
     42 X0000042               0                       0
     43 X0000043               0                       0
     44 X0000044               0                       0
     45 X0000045               0                       0
     46 X0000046               0                       0
     47 X0000047               0                       0
     48 X0000048               0                       0
     49 X0000049               0                       0
     50 X0000050               0                       0
     51 X0000051               0                       0
     52 X0000052               0                       0
     53 X0000053               0                       0
     54 X0000054               0                       0
     55 X0000055               0                       0
     56 X0000056               0                       0
     57 X0000057               0                       0
     58 X0000058               0                       0
     59 X0000059               0                       0
     60 X0000060               0                       0
     61 X0000061               0                       0
     62 X0000062               0                       0
     63 X0000063               0                       0
     64 X0000064               0                       0
     65 X0000065               0                       0
     66 X0000066               0                       0
     67 X0000067               0                       0
     68 X0000068               0                       0
     69 X0000069               0                       0
     70 X0000070               0                       0
     71 X0000071               0                       0
     72 X0000072               0                       0
     73 X0000073               0                       0
     74 X0000074               0                       0
     75 X0000075               0                       0
     76 X0000076               0                       0
     77 X0000077               0                       0
     78 X0000078               0                       0
     79 X0000079               0                       0
     80 X0000080               0                       0
     81 X0000081               0                       0
     82 X0000082               0                       0
     83 X0000083               0                       0
     84 X0000084               0                       0
     85 X0000085               0                       0
     86 X0000086               0                       0
     87 X0000087               0                       0
     88 X0000088               0                       0
     89 X0000089               0                       0
     90 X0000090               0                       0
     91 X0000091               0                       0
     92 X0000092               0                       0
     93 X0000093               0                       0
     94 X0000094               0                       0
     95 X0000095               0                       0
     96 X0000096               0                       0
     97 X0000097               0                       0
     98 X0000098               0                       0
     99 X0000099               0                       0
    100 X0000100               0                       0
    101 X0000101               0                       0
    102 X0000102               0                       0
    103 X0000103               0                       0
    104 X0000104               0                       0
    105 X0000105               0                       0
    106 X0000106               0                       0
    107 X0000107               0                       0
    108 X0000108               0                       0
    109 X0000109               0                       0
    110 X0000110               0                       0
    111 X0000111               0                       0
    112 X0000112               0                       0
    113 X0000113               0                       0
    114 X0000114               0                       0
    115 X0000115               0                       0
    116 X0000116               0                       0
    117 X0000117               0                       0
    118 X0000118               0                       0
    119 X0000119               0                       0
    120 X0000120               0                       0
    121 X0000121               0                       0
    122 X0000122               0                       0
    123 X0000123               0                       0
    124 X0000124               0                       0
    125 X0000125               0                       0
    126 X0000126               0                       0
    127 X0000127               0                       0
    128 X0000128               0                       0
    129 X0000129               0                       0
    130 X0000130               0                       0
    131 X0000131               0                       0
    132 X0000132               0                       0
    133 X0000133               0                       0
    134 X0000134               0                       0
    135 X0000135               0                       0
    136 X0000136               0                       0
    137 X0000137               0                       0
    138 X0000138               0                       0
    139 X0000139               0                       0
    140 X0000140               0                       0
    141 X0000141               0                       0
    142 X0000142               0                       0
    143 X0000143               0                       0
    144 X0000144               0                       0
    145 X0000145               0                       0
    146 X0000146               0                       0
    147 X0000147               0                       0
    148 X0000148               0                       0
    149 X0000149               0                       0
    150 X0000150               0                       0
    151 X0000151               0                       0
    152 X0000152               0                       0
    153 X0000153               0                       0
    154 X0000154               0                       0
    155 X0000155               0                       0
    156 X0000156               0                       0
    157 X0000157               0                       0
    158 X0000158               0                       0
    159 X0000159               0                       0
    160 X0000160               0                       0
    161 X0000161               0                       0
    162 X0000162               0                       0
    163 X0000163               0                       0
    164 X0000164               0                       0
    165 X0000165               0                       0
    166 X0000166               0                       0
    167 X0000167               0                       0
    168 X0000168               0                       0
    169 X0000169               0                       0
    170 X0000170               0                       0
    171 X0000171               0                       0
    172 X0000172               0                       0
    173 X0000173               0                       0
    174 X0000174               0                       0
    175 X0000175               0                       0
    176 X0000176               0                       0
    177 X0000177               0                       0
    178 X0000178               0                       0
    179 X0000179               0                       0
    180 X0000180               0                       0
    181 X0000181               0                       0
    182 X0000182               0                       0
    183 X0000183               0                       0
    184 X0000184               0                       0
    185 X0000185               0                       0
    186 X0000186               0                       0
    187 X0000187               1                       0
    188 X0000188               0                       0
    189 X0000189               0                       0
    190 X0000190               0                       0
    191 X0000191               0                       0
    192 X0000192               0                       0
    193 X0000193               0                       0
    194 X0000194               0                       0
    195 X0000195               0                       0
    196 X0000196               0                       0
    197 X0000197               0                       0
    198 X0000198               0                       0
    199 X0000199               0                       0
    200 X0000200               0                       0
    201 X0000201               0                       0
    202 X0000202               0                       0
    203 X0000203               0                       0
    204 X0000204               0                       0
    205 X0000205               0                       0
    206 X0000206               0                       0
    207 X0000207               0                       0
    208 X0000208               0                       0
    209 X0000209               0                       0
    210 X0000210               0                       0
    211 X0000211               0                       0
    212 X0000212               0                       0
    213 X0000213               0                       0
    214 X0000214               0                       0
    215 X0000215               0                       0
    216 X0000216               0                       0
    217 X0000217               0                       0
    218 X0000218               0                       0
    219 X0000219               0                       0
    220 X0000220               0                       0
    221 X0000221               0                       0
    222 X0000222               0                       0
    223 X0000223               0                       0
    224 X0000224               0                       0
    225 X0000225               0                       0
    226 X0000226               0                       0
    227 X0000227               0                       0
    228 X0000228               0                       0
    229 X0000229               0                       0
    230 X0000230               0                       0
    231 X0000231               0                       0
    232 X0000232               0                       0
    233 X0000233               0                       0
    234 X0000234               0                       0
    235 X0000235               0                       0
    236 X0000236               0                       0
    237 X0000237               0                       0
    238 X0000238               0                       0
    239 X0000239               0                       0
    240 X0000240               0                       0
    241 X0000241               0                       0
    242 X0000242               0                       0
    243 X0000243               0                       0
    244 X0000244               0                       0
    245 X0000245               0                       0
    246 X0000246               0                       0
    247 X0000247               0                       0
    248 X0000248               0                       0
    249 X0000249               0                       0
    250 X0000250               0                       0
    251 X0000251               0                       0
    252 X0000252               0                       0
    253 X0000253               0                       0
    254 X0000254               0                       0
    255 X0000255               0                       0
    256 X0000256               0                       0
    257 X0000257               0                       0
    258 X0000258               0                       0
    259 X0000259               0                       0
    260 X0000260               0                       0
    261 X0000261               0                       0
    262 X0000262               0                       0
    263 X0000263               0                       0
    264 X0000264               0                       0
    265 X0000265               0                       0
    266 X0000266               0                       0
    267 X0000267               0                       0
    268 X0000268               0                       0
    269 X0000269               0                       0
    270 X0000270               0                       0
    271 X0000271               0                       0
    272 X0000272               0                       0
    273 X0000273               0                       0
    274 X0000274               0                       0
    275 X0000275               0                       0
    276 X0000276               0                       0
    277 X0000277               0                       0
    278 X0000278               0                       0
    279 X0000279               0                       0
    280 X0000280               0                       0
    281 X0000281               0                       0
    282 X0000282               0                       0
    283 X0000283               0                       0
    284 X0000284               0                       0
    285 X0000285               0                       0
    286 X0000286               0                       0
    287 X0000287               0                       0
    288 X0000288               0                       0
    289 X0000289               0                       0
    290 X0000290               0                       0
    291 X0000291               0                       0
    292 X0000292               0                       0
    293 X0000293               0                       0
    294 X0000294               0                       0
    295 X0000295               0                       0
    296 X0000296               0                       0
    297 X0000297               0                       0
    298 X0000298               0                       0
    299 X0000299               0                       0
    300 X0000300               0                       0
    301 X0000301               0                       0
    302 X0000302               0                       0
    303 X0000303               0                       0
    304 X0000304               0                       0
    305 X0000305               0                       0
    306 X0000306               0                       0
    307 X0000307               0                       0
    308 X0000308               0                       0
    309 X0000309               0                       0
    310 X0000310               0                       0
    311 X0000311               0                       0
    312 X0000312               0                       0
    313 X0000313               0                       0
    314 X0000314               0                       0
    315 X0000315               0                       0
    316 X0000316               0                       0
    317 X0000317               0                       0
    318 X0000318               0                       0
    319 X0000319               0                       0
    320 X0000320               0                       0
    321 X0000321               0                       0
    322 X0000322               0                       0
    323 X0000323               0                       0
    324 X0000324               0                       0
    325 X0000325               0                       0
    326 X0000326               0                       0
    327 X0000327               0                       0
    328 X0000328               0                       0
    329 X0000329               0                       0
    330 X0000330               0                       0
    331 X0000331               0                       0
    332 X0000332               0                       0
    333 X0000333               0                       0
    334 X0000334               0                       0
    335 X0000335               0                       0
    336 X0000336               0                       0
    337 X0000337               0                       0
    338 X0000338               0                       0
    339 X0000339               0                       0
    340 X0000340               0                       0
    341 X0000341               1                       0
    342 X0000342               0                       0
    343 X0000343               0                       0
    344 X0000344               0                       0
    345 X0000345               0                       0
    346 X0000346               0                       0
    347 X0000347               0                       0
    348 X0000348               0                       0
    349 X0000349               0                       0
    350 X0000350               1                       0
    351 X0000351               0                       0
    352 X0000352               0                       0
    353 X0000353               0                       0
    354 X0000354               0                       0
    355 X0000355               0                       0
    356 X0000356               0                       0
    357 X0000357               0                       0
    358 X0000358               0                       0
    359 X0000359               0                       0
    360 X0000360               0                       0
    361 X0000361               0                       0
    362 X0000362               0                       0
    363 X0000363               0                       0
    364 X0000364               0                       0
    365 X0000365               0                       0
    366 X0000366               0                       0
    367 X0000367               0                       0
    368 X0000368               0                       0
    369 X0000369               0                       0
    370 X0000370               0                       0
    371 X0000371               0                       0
    372 X0000372               0                       0
    373 X0000373               0                       0
    374 X0000374               0                       0
    375 X0000375               0                       0
    376 X0000376               0                       0
    377 X0000377               0                       0
    378 X0000378               0                       0
    379 X0000379               0                       0
    380 X0000380               0                       0
    381 X0000381               1                       0
    382 X0000382               0                       0
    383 X0000383               0                       0
    384 X0000384               0                       0
    385 X0000385               0                       0
    386 X0000386               0                       0
    387 X0000387               0                       0
    388 X0000388               0                       0
    389 X0000389               0                       0
    390 X0000390               0                       0
    391 X0000391               0                       0
    392 X0000392               0                       0
    393 X0000393               0                       0
    394 X0000394               0                       0
    395 X0000395               0                       0
    396 X0000396               0                       0
    397 X0000397               0                       0
    398 X0000398               0                       0
    399 X0000399               0                       0
    400 X0000400               0                       0
    401 X0000401               0                       0
    402 X0000402               0                       0
    403 X0000403               0                       0
    404 X0000404               0                       0
    405 X0000405               0                       0
    406 X0000406               0                       0
    407 X0000407               0                       0
    408 X0000408               0                       0
    409 X0000409               0                       0
    410 X0000410               0                       0
    411 X0000411               0                       0
    412 X0000412               0                       0
    413 X0000413               0                       0
    414 X0000414               0                       0
    415 X0000415               0                       0
    416 X0000416               0                       0
    417 X0000417               0                       0
    418 X0000418               0                       0
    419 X0000419               0                       0
    420 X0000420               0                       0
    421 X0000421               0                       0
    422 X0000422               0                       0
    423 X0000423               0                       0
    424 X0000424               0                       0
    425 X0000425               0                       0
    426 X0000426               0                       0
    427 X0000427               0                       0
    428 X0000428               0                       0
    429 X0000429               0                       0
    430 X0000430               0                       0
    431 X0000431               0                       0
    432 X0000432               0                       0
    433 X0000433               0                       0
    434 X0000434               0                       0
